(set-logic BV)

(synth-fun deobfucated ( (a (BitVec 64))  (b (BitVec 64))  ) (BitVec 64)
	(
		(Start (BitVec 64)
			(
				(bvnot Start)
				(bvxor Start Start)
				(bvand Start Start)
				(bvor Start Start)
				(bvneg Start)
				(bvadd Start Start)
				(bvmul Start Start)
				(bvsub Start Start)
				a b
			)
		)
	)
)

(constraint (= (deobfucated #x000000002382e27b #x0000000029555332) #xffffffffbb77db72))
(constraint (= (deobfucated #x0000000022a1957b #x00000000353f6964) #xffffffffbd3f6964))
(constraint (= (deobfucated #x000000002d83667b #x000000000323f1bd) #xffffffffcf7bf7ff))
(constraint (= (deobfucated #x00000000059f21cb #x00000000230efbf8) #xfffffffff75ffbfc))
(constraint (= (deobfucated #x00000000369e7aca #x000000000c5fbc61) #xffffffffbd5ffcf5))
(constraint (= (deobfucated #x000000002f1458bd #x0000000006c9e85d) #xffffffffcee9fefd))
(constraint (= (deobfucated #x0000000032801355 #x0000000026b99eda) #xffffffffa6ffdfda))
(constraint (= (deobfucated #x00000000143fdd29 #x000000003606ba11) #xffffffffb7bffad5))
(constraint (= (deobfucated #x0000000030ce97ef #x000000003ac8cab9) #xffffffffbee8dfff))
(constraint (= (deobfucated #x000000001b4208d5 #x000000001b352cd8) #xffffffffdbbdeeda))
(constraint (= (deobfucated #x0000000019f38635 #x00000000286435c2) #xffffffffbdec75ca))
(constraint (= (deobfucated #x0000000013b43c61 #x000000001ba608d9) #xffffffffdba7badd))
(constraint (= (deobfucated #x000000003a8664f3 #x000000000bcd0d4c) #xffffffffbbed8dcc))
(constraint (= (deobfucated #x0000000002ba4f3b #x0000000010625a67) #xfffffffffce35e7f))
(constraint (= (deobfucated #x000000001196c100 #x000000000fc1bb47) #xffffffffdfe7bbff))
(constraint (= (deobfucated #x000000001d42e781 #x0000000010dccf30) #xffffffffd1fccf7e))
(constraint (= (deobfucated #x00000000060b95d6 #x0000000029eecc30) #xfffffffff9efddf9))
(constraint (= (deobfucated #x000000003a6ffed0 #x000000002d66456a) #xffffffffbd6fffef))
(constraint (= (deobfucated #x000000002f323398 #x000000002bf680e4) #xffffffffaff7cbe7))
(constraint (= (deobfucated #x00000000353b196e #x0000000023d9dee5) #xffffffffa7fbdfed))
(check-synth)